10
 7  8  3  8  1 14 18 16 13  9
11 20 18 16  2 20 18 19 18 14
 1  5 19  5  1  1  8  9 10 18
 8  9  7  5  5  8 16  4 18 19
 3  7 13 16  7 11  9 10 15 19
15  1 15 12 17 20 15 10 16 12
13 20 12 18 19 15  6  2 10  5
11  5  5 11  6 11 16 16  2  1
 1 20  3 19  5 12 13  8  6  6
 1 14  6 10  5 13  9 13 17 15